NAME : XML100_3241_15
DIMENSION : 101
NB_CLUSTERS : 3
CLUSTERING_ALG : KMedoids
CLUSTERING_PARAMS : k(2)
CLUSTERS
1 0
2 3 6 9 10 13 15 17 18 20 21 24 26 31 32 36 38 44 45 46 48 50 55 56 57 58 59 60 61 64 65 67 68 73 75 76 79 82 83 87 88 93 94 96 99 100
3 1 2 4 5 7 8 11 12 14 16 19 22 23 25 27 28 29 30 33 34 35 37 39 40 41 42 43 47 49 51 52 53 54 62 63 66 69 70 71 72 74 77 78 80 81 84 85 86 89 90 91 92 95 97 98
EOF